DIMENSION: 12
EDGE_WEIGHT_TYPE: EXPLICIT
EDGE_WEIGHT_FORMAT: FULL_MATRIX
EDGE_WEIGHT_SECTION:
32767 74 64 38 32767 32767 54 69 56 100 56 48 
74 32767 32767 39 17 54 40 2 50 55 14 67 
64 32767 32767 32767 11 83 86 22 100 38 32767 32767 
38 39 32767 32767 36 54 34 58 80 32767 34 71 
32767 17 11 36 32767 18 32767 56 80 84 35 69 
32767 54 83 54 18 32767 32767 28 38 76 55 3 
54 40 86 34 32767 32767 32767 37 9 87 73 100 
69 2 22 58 56 28 37 32767 32767 50 52 19 
56 50 100 80 80 38 9 32767 32767 69 32767 23 
100 55 38 32767 84 76 87 50 69 32767 84 88 
56 14 32767 34 35 55 73 52 32767 84 32767 58 
48 67 32767 71 69 3 100 19 23 88 58 32767 
EOF